CST03
Position Depot: Random
Horizon for Depot: Small
Position of customers: Cluster
Distribution of the demand: Medium
Width of time windows: Tight
Distribution of the service: Small

VEHICLE 
NUMBER 	 CAPACITY 
 9 	 	 174 
 
CUSTOMER
CUST NO. 	 XCOORD.  	 YCOORD. 	 DEMAND 	 READY TIME 	 DUE DATE 	 SERVICE TIME 
 0 	 	 863 	 	 587 	 	 0 	 	 0 	 	 2464 	 	 0 
  1 	 	 655 	 	 451 	 	 61 	 	 248 	 	 379 	 	 66 
  2 	 	 737 	 	 615 	 	 9 	 	 766 	 	 925 	 	 82 
  3 	 	 89 	 	 911 	 	 1 	 	 1797 	 	 1920 	 	 92 
  4 	 	 551 	 	 295 	 	 6 	 	 2227 	 	 2282 	 	 86 
  5 	 	 118 	 	 440 	 	 8 	 	 1879 	 	 2078 	 	 62 
  6 	 	 303 	 	 985 	 	 2 	 	 698 	 	 755 	 	 84 
  7 	 	 444 	 	 428 	 	 59 	 	 380 	 	 492 	 	 89 
  8 	 	 558 	 	 308 	 	 5 	 	 1558 	 	 1677 	 	 69 
  9 	 	 70 	 	 905 	 	 2 	 	 2251 	 	 2361 	 	 70 
  10 	 	 214 	 	 998 	 	 9 	 	 1731 	 	 1915 	 	 63 
  11 	 	 856 	 	 604 	 	 5 	 	 212 	 	 377 	 	 92 
  12 	 	 83 	 	 490 	 	 7 	 	 794 	 	 864 	 	 79 
  13 	 	 665 	 	 456 	 	 8 	 	 1016 	 	 1209 	 	 67 
  14 	 	 96 	 	 422 	 	 10 	 	 1486 	 	 1683 	 	 83 
  15 	 	 512 	 	 228 	 	 3 	 	 463 	 	 552 	 	 72 
  16 	 	 179 	 	 757 	 	 4 	 	 2159 	 	 2305 	 	 52 
  17 	 	 277 	 	 986 	 	 4 	 	 2280 	 	 2434 	 	 100 
  18 	 	 198 	 	 406 	 	 7 	 	 1626 	 	 1814 	 	 64 
  19 	 	 408 	 	 461 	 	 5 	 	 886 	 	 945 	 	 52 
  20 	 	 709 	 	 353 	 	 9 	 	 822 	 	 1010 	 	 100 
  21 	 	 308 	 	 958 	 	 1 	 	 568 	 	 734 	 	 56 
  22 	 	 663 	 	 441 	 	 2 	 	 1339 	 	 1469 	 	 82 
  23 	 	 98 	 	 454 	 	 10 	 	 1926 	 	 2101 	 	 73 
  24 	 	 645 	 	 470 	 	 1 	 	 827 	 	 1003 	 	 53 
  25 	 	 264 	 	 916 	 	 1 	 	 1518 	 	 1603 	 	 73 
  26 	 	 158 	 	 430 	 	 1 	 	 729 	 	 794 	 	 73 
  27 	 	 128 	 	 448 	 	 7 	 	 724 	 	 822 	 	 51 
  28 	 	 322 	 	 969 	 	 84 	 	 1014 	 	 1115 	 	 53 
  29 	 	 56 	 	 580 	 	 9 	 	 734 	 	 887 	 	 57 
  30 	 	 482 	 	 285 	 	 83 	 	 1498 	 	 1551 	 	 53 
  31 	 	 749 	 	 595 	 	 5 	 	 142 	 	 281 	 	 63 
  32 	 	 719 	 	 529 	 	 5 	 	 603 	 	 792 	 	 69 
  33 	 	 470 	 	 323 	 	 1 	 	 401 	 	 520 	 	 55 
  34 	 	 506 	 	 409 	 	 7 	 	 809 	 	 991 	 	 93 
  35 	 	 289 	 	 926 	 	 1 	 	 905 	 	 955 	 	 66 
  36 	 	 651 	 	 456 	 	 62 	 	 1798 	 	 1987 	 	 76 
  37 	 	 916 	 	 433 	 	 7 	 	 951 	 	 1034 	 	 56 
  38 	 	 556 	 	 373 	 	 56 	 	 220 	 	 411 	 	 82 
  39 	 	 529 	 	 311 	 	 53 	 	 1210 	 	 1306 	 	 79 
  40 	 	 627 	 	 460 	 	 7 	 	 1982 	 	 2067 	 	 64 
  41 	 	 188 	 	 779 	 	 62 	 	 1849 	 	 2049 	 	 61 
  42 	 	 386 	 	 343 	 	 67 	 	 1060 	 	 1136 	 	 81 
  43 	 	 494 	 	 407 	 	 6 	 	 554 	 	 676 	 	 93 
  44 	 	 759 	 	 642 	 	 10 	 	 529 	 	 727 	 	 99 
  45 	 	 716 	 	 470 	 	 6 	 	 2312 	 	 2464 	 	 99 
  46 	 	 497 	 	 352 	 	 9 	 	 2192 	 	 2313 	 	 55 
  47 	 	 402 	 	 458 	 	 68 	 	 912 	 	 1046 	 	 84 
  48 	 	 260 	 	 590 	 	 5 	 	 1286 	 	 1470 	 	 86 
  49 	 	 769 	 	 668 	 	 3 	 	 2286 	 	 2342 	 	 85 
  50 	 	 512 	 	 251 	 	 9 	 	 2061 	 	 2163 	 	 59 
  51 	 	 266 	 	 917 	 	 10 	 	 2305 	 	 2373 	 	 84 
  52 	 	 74 	 	 837 	 	 5 	 	 838 	 	 910 	 	 68 
  53 	 	 149 	 	 489 	 	 4 	 	 1763 	 	 1939 	 	 64 
  54 	 	 210 	 	 942 	 	 1 	 	 2252 	 	 2403 	 	 77 
  55 	 	 815 	 	 698 	 	 4 	 	 1756 	 	 1928 	 	 95 
  56 	 	 59 	 	 478 	 	 52 	 	 807 	 	 892 	 	 67 
  57 	 	 741 	 	 417 	 	 3 	 	 372 	 	 536 	 	 51 
  58 	 	 296 	 	 929 	 	 6 	 	 2086 	 	 2158 	 	 75 
  59 	 	 766 	 	 604 	 	 1 	 	 476 	 	 658 	 	 95 
  60 	 	 403 	 	 439 	 	 5 	 	 1427 	 	 1577 	 	 56 
  61 	 	 464 	 	 462 	 	 7 	 	 2208 	 	 2286 	 	 53 
  62 	 	 14 	 	 865 	 	 59 	 	 878 	 	 982 	 	 50 
  63 	 	 89 	 	 907 	 	 8 	 	 1795 	 	 1866 	 	 86 
  64 	 	 298 	 	 914 	 	 8 	 	 981 	 	 1105 	 	 64 
  65 	 	 620 	 	 447 	 	 6 	 	 2251 	 	 2433 	 	 78 
  66 	 	 807 	 	 471 	 	 5 	 	 1401 	 	 1536 	 	 80 
  67 	 	 75 	 	 907 	 	 8 	 	 2199 	 	 2310 	 	 85 
  68 	 	 85 	 	 494 	 	 8 	 	 1374 	 	 1463 	 	 67 
  69 	 	 720 	 	 550 	 	 9 	 	 295 	 	 470 	 	 51 
  70 	 	 26 	 	 977 	 	 4 	 	 873 	 	 1035 	 	 53 
  71 	 	 376 	 	 595 	 	 7 	 	 1968 	 	 2101 	 	 75 
  72 	 	 444 	 	 444 	 	 7 	 	 1562 	 	 1735 	 	 60 
  73 	 	 26 	 	 812 	 	 7 	 	 2311 	 	 2413 	 	 51 
  74 	 	 663 	 	 636 	 	 1 	 	 1256 	 	 1383 	 	 90 
  75 	 	 480 	 	 639 	 	 8 	 	 2188 	 	 2313 	 	 83 
  76 	 	 577 	 	 319 	 	 10 	 	 309 	 	 431 	 	 54 
  77 	 	 119 	 	 904 	 	 4 	 	 1391 	 	 1509 	 	 61 
  78 	 	 559 	 	 373 	 	 3 	 	 785 	 	 930 	 	 80 
  79 	 	 468 	 	 387 	 	 9 	 	 447 	 	 531 	 	 51 
  80 	 	 640 	 	 294 	 	 9 	 	 978 	 	 1097 	 	 63 
  81 	 	 456 	 	 516 	 	 3 	 	 445 	 	 622 	 	 63 
  82 	 	 773 	 	 629 	 	 10 	 	 408 	 	 470 	 	 55 
  83 	 	 679 	 	 612 	 	 2 	 	 1336 	 	 1465 	 	 88 
  84 	 	 159 	 	 885 	 	 8 	 	 665 	 	 840 	 	 94 
  85 	 	 697 	 	 580 	 	 6 	 	 2066 	 	 2229 	 	 63 
  86 	 	 694 	 	 329 	 	 80 	 	 1277 	 	 1342 	 	 64 
  87 	 	 112 	 	 457 	 	 10 	 	 1214 	 	 1405 	 	 92 
  88 	 	 207 	 	 955 	 	 2 	 	 1896 	 	 2079 	 	 56 
  89 	 	 883 	 	 457 	 	 9 	 	 2193 	 	 2289 	 	 82 
  90 	 	 206 	 	 426 	 	 88 	 	 632 	 	 744 	 	 86 
  91 	 	 699 	 	 624 	 	 80 	 	 1968 	 	 2065 	 	 62 
  92 	 	 163 	 	 530 	 	 3 	 	 1330 	 	 1497 	 	 63 
  93 	 	 543 	 	 317 	 	 2 	 	 1463 	 	 1659 	 	 58 
  94 	 	 648 	 	 461 	 	 7 	 	 748 	 	 909 	 	 55 
  95 	 	 315 	 	 946 	 	 1 	 	 1022 	 	 1134 	 	 73 
  96 	 	 750 	 	 578 	 	 8 	 	 1106 	 	 1261 	 	 76 
  97 	 	 474 	 	 357 	 	 10 	 	 325 	 	 497 	 	 100 
  98 	 	 804 	 	 635 	 	 6 	 	 1990 	 	 2052 	 	 54 
  99 	 	 136 	 	 412 	 	 84 	 	 715 	 	 822 	 	 56 
  100 	 	 558 	 	 366 	 	 4 	 	 1211 	 	 1283 	 	 84 
 